
Gurobi 11.0.3 (linux64) logging started Thu Apr 16 17:10:53 2026

Set parameter LogFile to value "tree/results/ctmc/ctmc_depth-2_run-2/Full MIP/LogFile_FullModel.txt"
Gurobi Optimizer version 11.0.3 build v11.0.3rc0 (linux64 - "CentOS Linux 7 (Core)")

CPU model: Intel(R) Xeon(R) Platinum 8260 CPU @ 2.40GHz, instruction set [SSE2|AVX|AVX2|AVX512]
Thread count: 96 physical cores, 192 logical processors, using up to 32 threads

Optimize a model with 31085 rows, 26623 columns and 364413 nonzeros
Model fingerprint: 0x2105bfdf
Model has 4416 general constraints
Variable types: 13330 continuous, 13293 integer (13293 binary)
Coefficient statistics:
  Matrix range     [9e-04, 1e+04]
  Objective range  [9e-04, 1e+04]
  Bounds range     [1e+00, 1e+03]
  RHS range        [1e-04, 2e+03]

User MIP start produced solution with objective -15899.5 (0.10s)
Loaded user MIP start with objective -15899.5

Presolve added 4412 rows and 8832 columns
Presolve time: 1.06s
Presolved: 35497 rows, 35455 columns, 382069 nonzeros
Presolved model has 8832 SOS constraint(s)
Variable types: 13330 continuous, 22125 integer (22125 binary)
Root relaxation presolved: 31081 rows, 31039 columns, 373237 nonzeros

Deterministic concurrent LP optimizer: primal and dual simplex
Showing primal log only...

Concurrent spin time: 0.16s (can be avoided by choosing Method=3)

Solved with primal simplex

Root relaxation: objective 1.000000e+00, 17021 iterations, 0.69 seconds (0.61 work units)

    Nodes    |    Current Node    |     Objective Bounds      |     Work
 Expl Unexpl |  Obj  Depth IntInf | Incumbent    BestBd   Gap | It/Node Time

     0     0    1.00000    0 3045 -15899.480    1.00000   100%     -    2s
     0     2    1.00000    0 3045 -15899.480    1.00000   100%     -   11s
H    1     4                    -15899.48007    1.00000   100%   0.0   23s
     3     8    1.00000    2 3120 -15899.480    1.00000   100%  1275   29s
     7    16    1.00000    3 2998 -15899.480    1.00000   100%  1686   36s
    15    32    1.00000    4 2989 -15899.480    1.00000   100%  1745   41s
H   31    64                    -15899.48006    1.00000   100%  1440   51s
H   33    64                       0.4528986    1.00000   121%  1361   51s
    63    96    1.00000    6 3006    0.45290    1.00000   121%   744   77s
    95   128    1.00000    6 3005    0.45290    1.00000   121%   525  120s
   159   192    1.00000    7 3005    0.45290    1.00000   121%   327  136s
   191   248    1.00000    8 2999    0.45290    1.00000   121%   278  146s
   247   280    1.00000    9 2998    0.45290    1.00000   121%   312  233s
   279   672    1.00000    9 3032    0.45290    1.00000   121%   290  252s
   671  1941    1.00000   17 3165    0.45290    1.00000   121%   299  365s
  1940  5681    1.00000   30 2967    0.45290    1.00000   121%   172  470s
  5680  7796    1.00000   51 3399    0.45290    1.00000   121%   116 1013s
H 6210  7796                       0.5199275    1.00000  92.3%   113 1013s
  7795  7828    1.00000   61 2920    0.51993    1.00000  92.3%   101 1603s
H 7798  7828                       0.5226449    1.00000  91.3%   101 1603s
H 7803  7828                       0.5235507    1.00000  91.0%   102 1603s
  7827 11109    1.00000   62 3389    0.52355    1.00000  91.0%   102 2276s
 11108 14289    1.00000   99 2951    0.52355    1.00000  91.0%   100 2466s
H11426 14289                       0.5253623    1.00000  90.3%   100 2466s
 14288 18049    1.00000  120 3864    0.52536    1.00000  90.3%  93.7 2692s
 18049 18050    1.00000  406    5    0.52536    1.00000  90.3%  89.1 2705s
 18051 18051    1.00000   50  304    0.52536    1.00000  90.3%  89.1 2723s
 18052 18052    1.00000  742  304    0.52536    1.00000  90.3%  89.1 2820s
 18053 18056    1.00000   16 3815    0.52536    1.00000  90.3%  90.5 2839s
 18055 18059    1.00000   17 3828    0.52536    1.00000  90.3%  90.6 2842s
 18067 18079    1.00000   19 4036    0.52536    1.00000  90.3%  91.3 2847s
 18083 18106    1.00000   20 3903    0.52536    1.00000  90.3%  92.2 2862s
 18147 18148    1.00000   21 3902    0.52536    1.00000  90.3%  92.3 2875s
 18211 18191    1.00000   22 3676    0.52536    1.00000  90.3%  92.4 2900s
 18243 18223    1.00000   23 3907    0.52536    1.00000  90.3%  94.8 2924s
 18286 18241    1.00000   24 3903    0.52536    1.00000  90.3%  95.6 2935s
 18318 18285    1.00000   24 3906    0.52536    1.00000  90.3%  95.5 2979s
 18373 18299    1.00000   25 3901    0.52536    1.00000  90.3%  95.4 3134s
 18405 18320    1.00000   25 3930    0.52536    1.00000  90.3%  95.3 3308s
 18437 19000    1.00000   26 3969    0.52536    1.00000  90.3%  95.3 3600s

Explored 19127 nodes (1826481 simplex iterations) in 3600.24 seconds (5987.21 work units)
Thread count was 32 (of 192 available processors)

Solution count 7: 0.525362 0.523551 0.522645 ... -15899.5

Time limit reached
Best objective 5.253623188406e-01, best bound 1.000000000000e+00, gap 90.3448%

User-callback calls 2633534, time in user-callback 12.83 sec
